NAME: random problem
TYPE: MTSP
COMMENT: MTSP problem for MRS UAV summer school
DIMENSION: 20
NUMBER_OF_ROBOTS: 2
START_TARGET_INDEXES: 1, 2
NEIGHBORHOOD_RADIUS: 2
EDGE_WEIGHT_TYPE: EUC_2D
NODE_COORD_SECTION
1 15.0 -21.0
2 -5.0 -25.0
3 3.0 3.2
4 15.4 10.9
5 -31.2 7.6
6 -33.2 3.0
7 -5.2 14.8
8 -18.8 -23.1
9 19.7 -22.7
10 6.6 12.7
11 -21.6 9.1
12 17.1 -26.3
13 -8.0 -25.0
14 -4.0 -26.8
15 -27.0 -9.0
16 -24.5 -29.1
17 7.1 -21.7
18 1.4 -5.9
19 -22.3 -15.6
20 -33.8 -13.4
EOF
